%chk=AB-AB-NHscan.chk
%nproc=4
%mem=4276MB

#P RwB97XD/6-311G(d,p)int(grid=ultrafine) opt(modred,loose)

AB2-mult-scan5_2.gjf

0 1
B   -0.033859   -1.256253   0.000000
N   1.265617   0.397155   0.000000
N   -1.238974   -0.367440   0.000000
B   0.000000   1.206332   0.000000
H   -1.814053   -0.368343   0.829426
H   -1.814053   -0.368343   -0.829426
H   -0.296297   1.736956   1.033959
H   -0.296297   1.736956   -1.033959
H   1.837385   0.424473   -0.830236
H   1.837385   0.424473   0.830236
H   0.264362   -1.772287   -1.036633
H   0.264362   -1.772287   1.036633

B 1 2 F
B 3 4 S 1 0.1

