%chk=AB-AB-NHscan.chk
%nproc=4
%mem=8605MB

#P RwB97XD/6-311G(d,p)int(grid=ultrafine) opt(modred,loose)

AB2-mult-scan6_1.gjf

0 1
B   -0.000000   -1.230049   0.000000
N   1.261244   0.452705   0.000000
N   -1.261265   -0.452628   0.000000
B   -0.000197   1.230259   0.000000
H   -1.828445   -0.452659   0.833087
H   -1.828445   -0.452659   -0.833087
H   -0.342182   1.720515   1.037004
H   -0.342182   1.720515   -1.037004
H   1.828551   0.452587   -0.833019
H   1.828551   0.452587   0.833019
H   0.342645   -1.721239   -1.036428
H   0.342645   -1.721239   1.036428

B 1 2 S 1 0.1
B 3 4 F

