%chk=AB-AB-NHscan.chk
%nproc=4
%mem=8605MB

#P RwB97XD/6-311G(d,p)int(grid=ultrafine) opt(modred,loose)

AB2-mult-scan7_2.gjf

0 1
B   0.027192   1.276027   0.000000
N   -1.301595   -0.604903   0.000000
N   1.279849   0.570234   0.000000
B   0.000000   -1.222803   0.000000
H   1.828384   0.482546   0.839180
H   1.828384   0.482546   -0.839180
H   0.427832   -1.635565   1.038731
H   0.427832   -1.635565   -1.038731
H   -1.851234   -0.538856   -0.839682
H   -1.851234   -0.538856   0.839682
H   -0.396851   1.680161   -1.041091
H   -0.396851   1.680161   1.041091

B 1 2 F
B 3 4 S 1 0.1

