%chk=AB-AB-NHscan.chk
%nproc=4
%mem=8605MB

#P RwB97XD/6-311G(d,p)int(grid=ultrafine) opt(modred,loose)

AB2-mult-scan3_2.gjf

0 1
B   -0.037581   -1.209550   0.000000
N   1.227645   0.211866   0.000000
N   -1.198071   -0.183407   0.000000
B   0.000000   1.163909   0.000000
H   -1.783562   -0.184544   0.823693
H   -1.783562   -0.184544   -0.823693
H   -0.155445   1.770004   1.027148
H   -0.155445   1.770004   -1.027148
H   1.809051   0.229138   -0.825391
H   1.809051   0.229138   0.825391
H   0.120398   -1.800099   -1.031228
H   0.120398   -1.800099   1.031228

B 1 2 F
B 3 4 S 1 0.1

