%chk=AB-AB-NHscan.chk
%nproc=4
%mem=4298MB

#P RwB97XD/6-311G(d,p)int(grid=ultrafine) opt(modred,loose)

AB2-mult-scan6_2.gjf

0 1
B   0.030186   1.262475   0.000000
N   -1.287280   -0.503104   0.000000
N   1.263117   0.471369   0.000000
B   0.000000   -1.209981   0.000000
H   1.825563   0.433258   0.835092
H   1.825563   0.433258   -0.835092
H   0.370393   -1.683450   1.036207
H   0.370393   -1.683450   -1.036207
H   -1.849244   -0.493357   -0.835407
H   -1.849244   -0.493357   0.835407
H   -0.337607   1.723386   -1.039443
H   -0.337607   1.723386   1.039443

B 1 2 F
B 3 4 S 1 0.1

